(declare-sort $$unsorted 0)
(declare-fun tptp.op ($$unsorted $$unsorted) $$unsorted)
(assert (forall ((X0 $$unsorted) (X1 $$unsorted) (X2 $$unsorted) (X3 $$unsorted)) (= X0 (tptp.op X1 (tptp.op X0 (tptp.op X2 (tptp.op X3 X1)))))))
(assert (not (forall ((X0 $$unsorted) (X1 $$unsorted) (X2 $$unsorted) (X3 $$unsorted)) (= X0 (tptp.op (tptp.op (tptp.op X1 X0) (tptp.op X1 X2)) X1)))))
(set-info :filename Equation496_implies_Equation2713)
(check-sat-assuming ( true ))
